#######################################
### Exact MIP solver for the HHCRSP ###
#######################################
-- Instance file: new-instances/HHCRSP_75_15_16_0.4_C_C.txt
-- Max threads: 4
-- Time limit: 999999 seconds
-- Use initial solution: No
Trivial flow violations prevented generating 20001 variables.
Model exported.
Version identifier: 20.1.0.0 | 2020-11-10 | 9bedb6d68
CPXPARAM_Threads                                 4
CPXPARAM_TimeLimit                               999999
Parallel mode: deterministic, using up to 4 threads for concurrent optimization:
 * Starting dual Simplex on 1 thread...
 * Starting Barrier on 3 threads...
Tried aggregator 1 time.
LP Presolve eliminated 2964 rows and 704 columns.
Reduced LP has 20502 rows, 19727 columns, and 201702 nonzeros.
Presolve time = 0.09 sec. (55.60 ticks)
Symmetry aggregator did 14366 additional substitutions.

Iteration log . . .
Iteration:     1   Dual objective     =             0.000000

Dual crossover.
  Dual:  Fixing 163 variables.
      162 DMoves:  Infeasibility  4.51305948e-14  Objective  1.51000000e+02
        0 DMoves:  Infeasibility  1.37667943e-14  Objective  1.51000000e+02
  Dual:  Pushed 8, exchanged 155.
  Primal:  Fixing 44 variables.
       43 PMoves:  Infeasibility  0.00000000e+00  Objective  1.51000000e+02
        0 PMoves:  Infeasibility  0.00000000e+00  Objective  1.51000000e+02
  Primal:  Pushed 15, exchanged 29.

Dual simplex solved model.


Solution status from MIP model:
-- Processing time: 0.201 sec.
-- Memory used: 84.6992 MB
-- Best bound: inf
-- Obj value: 151
-- Gap: inf%
-- Total distance: 453
-- Total tardiness: 0
-- Largest tardiness: 0
